WARNING: for repeatability, setting FPU to use double precision
============================[ Problem Statistics ]=============================
|                                                                             |
|  Number of variables:         58317                                         |
|  Number of clauses:            1883                                         |
|  Parse time:                   0.01 s                                       |
|                                                                             |
c ============================[ Search Statistics ]==============================
c | Conflicts |          ORIGINAL         |          LEARNT          | Progress |
c |           |    Vars  Clauses Literals |    Limit  Clauses Lit/Cl |          |
c ===============================================================================
We had 47 decisions of which only 0 were on extended
We had 8032769 decisions of which only 0 were on extended
We had 10925658 decisions of which only 0.00192208 were on extended
We had 21279621 decisions of which only 0.00661666 were on extended
c Switched to VSIDS.
We had 31926047 decisions of which only 0.0160966 were on extended
We had 39257784 decisions of which only 0.0454432 were on extended
We had 39276621 decisions of which only 0.0458746 were on extended
We had 39296174 decisions of which only 0.0460121 were on extended
We had 39313832 decisions of which only 0.0462509 were on extended
We had 39332666 decisions of which only 0.0465593 were on extended
We had 39350999 decisions of which only 0.0467256 were on extended
We had 39367548 decisions of which only 0.0469676 were on extended
We had 39383649 decisions of which only 0.0472328 were on extended
We had 39401761 decisions of which only 0.0479623 were on extended
We had 39418503 decisions of which only 0.0485914 were on extended
We had 39436266 decisions of which only 0.0492389 were on extended
We had 39453016 decisions of which only 0.0499556 were on extended
We had 39472350 decisions of which only 0.0505822 were on extended
We had 39488857 decisions of which only 0.0519336 were on extended
Window full
Continue
We had 39504027 decisions of which only 0.0530629 were on extended
We had 39523103 decisions of which only 0.0538875 were on extended
We had 39539979 decisions of which only 0.0551492 were on extended
We had 39558213 decisions of which only 0.0562058 were on extended
We had 39575005 decisions of which only 0.0577789 were on extended
We had 39589680 decisions of which only 0.0590533 were on extended
We had 39606096 decisions of which only 0.0600362 were on extended
We had 39623968 decisions of which only 0.0617959 were on extended
We had 39641172 decisions of which only 0.064042 were on extended
We had 39657188 decisions of which only 0.0660082 were on extended
Window full
Continue
We had 39673651 decisions of which only 0.0678838 were on extended
We had 39689050 decisions of which only 0.0698555 were on extended
We had 39703614 decisions of which only 0.0727843 were on extended
CAREFUL: the definition is falsified in conflict 311243 at DL 95 (has happened 1 times)
We had 39720090 decisions of which only 0.075531 were on extended
We had 39738194 decisions of which only 0.0778294 were on extended
We had 39755204 decisions of which only 0.0808599 were on extended
We had 39770952 decisions of which only 0.0833171 were on extended
We had 39788574 decisions of which only 0.0865148 were on extended
We had 39803308 decisions of which only 0.0892137 were on extended
We had 39818559 decisions of which only 0.0925423 were on extended
Window full
Continue
We had 39835837 decisions of which only 0.0954492 were on extended
We had 39852374 decisions of which only 0.0987193 were on extended
We had 39868968 decisions of which only 0.102609 were on extended
We had 39885232 decisions of which only 0.105495 were on extended
c Switched to LRB.
We had 39904184 decisions of which only 0.109981 were on extended
We had 39921679 decisions of which only 0.114321 were on extended
We had 39941633 decisions of which only 0.119089 were on extended
We had 39960938 decisions of which only 0.123791 were on extended
We had 39979049 decisions of which only 0.127637 were on extended
We had 39997204 decisions of which only 0.132459 were on extended
Window full
Continue
We had 40013523 decisions of which only 0.137331 were on extended
We had 40028564 decisions of which only 0.141971 were on extended
We had 40049870 decisions of which only 0.14825 were on extended
We had 40068099 decisions of which only 0.153481 were on extended
We had 40087239 decisions of which only 0.15955 were on extended
We had 40105077 decisions of which only 0.165667 were on extended
We had 40123239 decisions of which only 0.171806 were on extended
We had 40142750 decisions of which only 0.178538 were on extended
We had 40162481 decisions of which only 0.186191 were on extended
We had 40181988 decisions of which only 0.19398 were on extended
Window full
Continue
We had 40197599 decisions of which only 0.200676 were on extended
We had 40212797 decisions of which only 0.20622 were on extended
We had 40227982 decisions of which only 0.212658 were on extended
We had 40242102 decisions of which only 0.220652 were on extended
We had 40257329 decisions of which only 0.229762 were on extended
We had 40277201 decisions of which only 0.23985 were on extended
We had 40295914 decisions of which only 0.249693 were on extended
We had 40317140 decisions of which only 0.260537 were on extended
We had 40332579 decisions of which only 0.268393 were on extended
We had 40351072 decisions of which only 0.279363 were on extended
Window full
Continue
We had 40369903 decisions of which only 0.290526 were on extended
We had 40387338 decisions of which only 0.300589 were on extended
We had 40406019 decisions of which only 0.311916 were on extended
We had 40421126 decisions of which only 0.322856 were on extended
We had 40435627 decisions of which only 0.334376 were on extended
We had 40452510 decisions of which only 0.347489 were on extended
c Switched to VSIDS.
We had 40467698 decisions of which only 0.355147 were on extended
We had 40484140 decisions of which only 0.364451 were on extended
We had 40497881 decisions of which only 0.375447 were on extended
We had 40512271 decisions of which only 0.386451 were on extended
Window full
Continue
We had 40526127 decisions of which only 0.396729 were on extended
We had 40541397 decisions of which only 0.406942 were on extended
We had 40557596 decisions of which only 0.417779 were on extended
We had 40573063 decisions of which only 0.429645 were on extended
We had 40589322 decisions of which only 0.440567 were on extended
We had 40605203 decisions of which only 0.450435 were on extended
We had 40620678 decisions of which only 0.461649 were on extended
We had 40636837 decisions of which only 0.472611 were on extended
We had 40651229 decisions of which only 0.482564 were on extended
We had 40666790 decisions of which only 0.495736 were on extended
Window full
Continue
We had 40680880 decisions of which only 0.507924 were on extended
We had 40695418 decisions of which only 0.520452 were on extended
We had 40709494 decisions of which only 0.534241 were on extended
We had 40724031 decisions of which only 0.54886 were on extended
We had 40738379 decisions of which only 0.56244 were on extended
We had 40753314 decisions of which only 0.575934 were on extended
We had 40767395 decisions of which only 0.589773 were on extended
We had 40782937 decisions of which only 0.604299 were on extended
We had 40798525 decisions of which only 0.618679 were on extended
We had 40814260 decisions of which only 0.63457 were on extended
Window full
Continue
We had 40828779 decisions of which only 0.64796 were on extended
We had 40843358 decisions of which only 0.66498 were on extended
We had 40856591 decisions of which only 0.679523 were on extended
We had 40870606 decisions of which only 0.695436 were on extended
We had 40885123 decisions of which only 0.712022 were on extended
c Switched to LRB.
We had 40903469 decisions of which only 0.73054 were on extended
We had 40920667 decisions of which only 0.750059 were on extended
We had 40937668 decisions of which only 0.770786 were on extended
We had 40952421 decisions of which only 0.790517 were on extended
We had 40967242 decisions of which only 0.807826 were on extended
Window full
Continue
We had 40982252 decisions of which only 0.828012 were on extended
We had 40998593 decisions of which only 0.84911 were on extended
We had 41015288 decisions of which only 0.869037 were on extended
We had 41028762 decisions of which only 0.88544 were on extended
We had 41043243 decisions of which only 0.903177 were on extended
We had 41056510 decisions of which only 0.92096 were on extended
We had 41069937 decisions of which only 0.939517 were on extended
We had 41083309 decisions of which only 0.959063 were on extended
We had 41095482 decisions of which only 0.979458 were on extended
We had 41108100 decisions of which only 0.99738 were on extended
Window full
Continue
We had 41121241 decisions of which only 1.01976 were on extended
We had 41133724 decisions of which only 1.03896 were on extended
We had 41147505 decisions of which only 1.06218 were on extended
We had 41160735 decisions of which only 1.08365 were on extended
We had 41173877 decisions of which only 1.10438 were on extended
We had 41186700 decisions of which only 1.12296 were on extended
We had 41199561 decisions of which only 1.1427 were on extended
We had 41212341 decisions of which only 1.16323 were on extended
c Switched to VSIDS.
We had 41227188 decisions of which only 1.18245 were on extended
We had 41242159 decisions of which only 1.20156 were on extended
Window full
Continue
We had 41257165 decisions of which only 1.21805 were on extended
We had 41270764 decisions of which only 1.23513 were on extended
We had 41286062 decisions of which only 1.25321 were on extended
We had 41300591 decisions of which only 1.27129 were on extended
We had 41316265 decisions of which only 1.29066 were on extended
We had 41330536 decisions of which only 1.30832 were on extended
We had 41345176 decisions of which only 1.3289 were on extended
We had 41359178 decisions of which only 1.34781 were on extended
We had 41372844 decisions of which only 1.36584 were on extended
We had 41386252 decisions of which only 1.38503 were on extended
Window full
Continue
We had 41401331 decisions of which only 1.40395 were on extended
We had 41417424 decisions of which only 1.42546 were on extended
We had 41432368 decisions of which only 1.44654 were on extended
We had 41446240 decisions of which only 1.46699 were on extended
We had 41460550 decisions of which only 1.48508 were on extended
We had 41474283 decisions of which only 1.5051 were on extended
We had 41487887 decisions of which only 1.52548 were on extended
We had 41502580 decisions of which only 1.54455 were on extended
We had 41516570 decisions of which only 1.56513 were on extended
We had 41531547 decisions of which only 1.58537 were on extended
Window full
Continue
We had 41544578 decisions of which only 1.60607 were on extended
We had 41558810 decisions of which only 1.62812 were on extended
We had 41573068 decisions of which only 1.64848 were on extended
c Switched to LRB.
We had 41588151 decisions of which only 1.6684 were on extended
We had 41603153 decisions of which only 1.69242 were on extended
We had 41616328 decisions of which only 1.71351 were on extended
We had 41627710 decisions of which only 1.73239 were on extended
We had 41639039 decisions of which only 1.75457 were on extended
We had 41651002 decisions of which only 1.77626 were on extended
We had 41663273 decisions of which only 1.79901 were on extended
Window full
Continue
We had 41676578 decisions of which only 1.82144 were on extended
We had 41690747 decisions of which only 1.84597 were on extended
We had 41704755 decisions of which only 1.87077 were on extended
We had 41718175 decisions of which only 1.89405 were on extended
We had 41730934 decisions of which only 1.91599 were on extended
We had 41743929 decisions of which only 1.93891 were on extended
We had 41755969 decisions of which only 1.96087 were on extended
We had 41768520 decisions of which only 1.98175 were on extended
We had 41780966 decisions of which only 2.00241 were on extended
We had 41792526 decisions of which only 2.02432 were on extended
Window full
Continue
We had 41804449 decisions of which only 2.04624 were on extended
We had 41816871 decisions of which only 2.07094 were on extended
We had 41829521 decisions of which only 2.09445 were on extended
c Switched to VSIDS.
We had 41842899 decisions of which only 2.11742 were on extended
We had 41856850 decisions of which only 2.14056 were on extended
We had 41870111 decisions of which only 2.16299 were on extended
We had 41883473 decisions of which only 2.18441 were on extended
We had 41896602 decisions of which only 2.20701 were on extended
We had 41912031 decisions of which only 2.23127 were on extended
We had 41925820 decisions of which only 2.2538 were on extended
Window full
Continue
We had 41941050 decisions of which only 2.27787 were on extended
We had 41954010 decisions of which only 2.30049 were on extended
We had 41968977 decisions of which only 2.32426 were on extended
We had 41982450 decisions of which only 2.34728 were on extended
We had 41996222 decisions of which only 2.37068 were on extended
We had 42009629 decisions of which only 2.39327 were on extended
We had 42023040 decisions of which only 2.41615 were on extended
We had 42036730 decisions of which only 2.4387 were on extended
We had 42050529 decisions of which only 2.46259 were on extended
We had 42064809 decisions of which only 2.48641 were on extended
Window full
Continue
We had 42080196 decisions of which only 2.51175 were on extended
We had 42093754 decisions of which only 2.53521 were on extended
We had 42107599 decisions of which only 2.55828 were on extended
We had 42120997 decisions of which only 2.58171 were on extended
We had 42135152 decisions of which only 2.60558 were on extended
We had 42148372 decisions of which only 2.62961 were on extended
c Switched to LRB.
We had 42163951 decisions of which only 2.65558 were on extended
We had 42177632 decisions of which only 2.68086 were on extended
We had 42190780 decisions of which only 2.70575 were on extended
We had 42203110 decisions of which only 2.72921 were on extended
Window full
Continue
We had 42215992 decisions of which only 2.75458 were on extended
We had 42228105 decisions of which only 2.77911 were on extended
We had 42240028 decisions of which only 2.80481 were on extended
We had 42251309 decisions of which only 2.82886 were on extended
We had 42263675 decisions of which only 2.85479 were on extended
We had 42275367 decisions of which only 2.88041 were on extended
We had 42287259 decisions of which only 2.90701 were on extended
We had 42299279 decisions of which only 2.93296 were on extended
We had 42311984 decisions of which only 2.95909 were on extended
We had 42324172 decisions of which only 2.98393 were on extended
Window full
Continue
We had 42336151 decisions of which only 3.00968 were on extended
We had 42347878 decisions of which only 3.03488 were on extended
We had 42359228 decisions of which only 3.05939 were on extended
We had 42371045 decisions of which only 3.08443 were on extended
We had 42382832 decisions of which only 3.11009 were on extended
We had 42394506 decisions of which only 3.13461 were on extended
We had 42406342 decisions of which only 3.15996 were on extended
We had 42417774 decisions of which only 3.18462 were on extended
We had 42429339 decisions of which only 3.20969 were on extended
We had 42440962 decisions of which only 3.23387 were on extended
Window full
Continue
We had 42452525 decisions of which only 3.25853 were on extended
c Switched to VSIDS.
We had 42463968 decisions of which only 3.28256 were on extended
We had 42478388 decisions of which only 3.30869 were on extended
We had 42491984 decisions of which only 3.33202 were on extended
We had 42505751 decisions of which only 3.35661 were on extended
We had 42518766 decisions of which only 3.38146 were on extended
We had 42532261 decisions of which only 3.40602 were on extended
We had 42546226 decisions of which only 3.43113 were on extended
We had 42560089 decisions of which only 3.45719 were on extended
We had 42573491 decisions of which only 3.48162 were on extended
Window full
Continue
We had 42586002 decisions of which only 3.50578 were on extended
We had 42599241 decisions of which only 3.5301 were on extended
We had 42612348 decisions of which only 3.55411 were on extended
We had 42626126 decisions of which only 3.57852 were on extended
We had 42640161 decisions of which only 3.604 were on extended
We had 42653723 decisions of which only 3.62839 were on extended
We had 42666470 decisions of which only 3.65248 were on extended
c Switched to LRB.
We had 42679692 decisions of which only 3.67647 were on extended
We had 42691527 decisions of which only 3.70009 were on extended
We had 42703721 decisions of which only 3.72475 were on extended
Window full
Continue
We had 42715601 decisions of which only 3.74868 were on extended
We had 42728222 decisions of which only 3.77157 were on extended
We had 42740057 decisions of which only 3.79496 were on extended
We had 42752575 decisions of which only 3.82018 were on extended
We had 42765482 decisions of which only 3.84544 were on extended
We had 42777449 decisions of which only 3.87067 were on extended
We had 42789421 decisions of which only 3.89545 were on extended
We had 42801731 decisions of which only 3.92049 were on extended
We had 42814700 decisions of which only 3.94489 were on extended
We had 42828435 decisions of which only 3.97124 were on extended
Window full
Continue
We had 42842191 decisions of which only 3.99864 were on extended
We had 42854457 decisions of which only 4.02336 were on extended
We had 42866144 decisions of which only 4.04741 were on extended
We had 42878416 decisions of which only 4.07144 were on extended
We had 42890973 decisions of which only 4.0934 were on extended
We had 42903504 decisions of which only 4.11786 were on extended
c Switched to VSIDS.
We had 42916516 decisions of which only 4.1416 were on extended
We had 42929045 decisions of which only 4.16582 were on extended
We had 42942317 decisions of which only 4.19068 were on extended
We had 42955343 decisions of which only 4.21578 were on extended
Window full
Continue
We had 42967993 decisions of which only 4.23942 were on extended
We had 42980805 decisions of which only 4.26353 were on extended
We had 42993851 decisions of which only 4.28788 were on extended
We had 43007374 decisions of which only 4.31367 were on extended
We had 43020674 decisions of which only 4.33824 were on extended
We had 43033532 decisions of which only 4.36248 were on extended
We had 43046738 decisions of which only 4.38738 were on extended
We had 43059361 decisions of which only 4.41062 were on extended
We had 43072527 decisions of which only 4.4353 were on extended
We had 43085539 decisions of which only 4.45953 were on extended
Window full
Continue
We had 43097934 decisions of which only 4.48283 were on extended
We had 43110418 decisions of which only 4.50587 were on extended
We had 43123359 decisions of which only 4.53017 were on extended
We had 43136678 decisions of which only 4.55499 were on extended
We had 43149396 decisions of which only 4.57897 were on extended
We had 43161643 decisions of which only 4.60299 were on extended
c Switched to LRB.
We had 43174974 decisions of which only 4.62781 were on extended
We had 43187086 decisions of which only 4.65162 were on extended
We had 43198960 decisions of which only 4.67665 were on extended
We had 43211040 decisions of which only 4.70145 were on extended
Window full
Continue
We had 43222782 decisions of which only 4.72491 were on extended
We had 43234707 decisions of which only 4.75042 were on extended
We had 43246012 decisions of which only 4.77473 were on extended
We had 43257409 decisions of which only 4.79951 were on extended
We had 43268812 decisions of which only 4.82425 were on extended
We had 43280525 decisions of which only 4.84917 were on extended
We had 43292368 decisions of which only 4.87453 were on extended
We had 43303658 decisions of which only 4.89928 were on extended
We had 43314961 decisions of which only 4.92401 were on extended
We had 43326400 decisions of which only 4.9489 were on extended
Window full
Continue
We had 43337959 decisions of which only 4.97389 were on extended
We had 43349505 decisions of which only 4.99904 were on extended
We had 43361043 decisions of which only 5.02407 were on extended
c Switched to VSIDS.
We had 43373008 decisions of which only 5.0492 were on extended
We had 43385890 decisions of which only 5.07379 were on extended
We had 43398357 decisions of which only 5.09845 were on extended
We had 43411013 decisions of which only 5.12297 were on extended
We had 43423930 decisions of which only 5.1474 were on extended
We had 43436666 decisions of which only 5.17201 were on extended
We had 43448705 decisions of which only 5.19417 were on extended
Window full
Some very high
Continue
We had 43461275 decisions of which only 5.21824 were on extended
We had 43474525 decisions of which only 5.24291 were on extended
We had 43486873 decisions of which only 5.26664 were on extended
We had 43499001 decisions of which only 5.28974 were on extended
We had 43511048 decisions of which only 5.31245 were on extended
We had 43523617 decisions of which only 5.33717 were on extended
We had 43537029 decisions of which only 5.36298 were on extended
We had 43550095 decisions of which only 5.38812 were on extended
We had 43563150 decisions of which only 5.41344 were on extended
We had 43575213 decisions of which only 5.4381 were on extended
We had 43588120 decisions of which only 5.4633 were on extended
We had 43600545 decisions of which only 5.48806 were on extended
We had 43612808 decisions of which only 5.51241 were on extended
We had 43624985 decisions of which only 5.53581 were on extended
c Switched to LRB.
We had 43637938 decisions of which only 5.56018 were on extended
We had 43650652 decisions of which only 5.58536 were on extended
We had 43662563 decisions of which only 5.60924 were on extended
We had 43674381 decisions of which only 5.63417 were on extended
We had 43686506 decisions of which only 5.65956 were on extended
We had 43698795 decisions of which only 5.68564 were on extended
We had 43710670 decisions of which only 5.71098 were on extended
We had 43722397 decisions of which only 5.73589 were on extended
We had 43733931 decisions of which only 5.76015 were on extended
We had 43745578 decisions of which only 5.78484 were on extended
We had 43757352 decisions of which only 5.8099 were on extended
We had 43768931 decisions of which only 5.8344 were on extended
We had 43780445 decisions of which only 5.85894 were on extended
We had 43792005 decisions of which only 5.88359 were on extended
We had 43803405 decisions of which only 5.9078 were on extended
We had 43814835 decisions of which only 5.93214 were on extended
We had 43826540 decisions of which only 5.95706 were on extended
We had 43837522 decisions of which only 5.98061 were on extended
We had 43848722 decisions of which only 6.00428 were on extended
We had 43859914 decisions of which only 6.0277 were on extended
We had 43871155 decisions of which only 6.05137 were on extended
c Switched to VSIDS.
We had 43882544 decisions of which only 6.07525 were on extended
We had 43894821 decisions of which only 6.0996 were on extended
We had 43906895 decisions of which only 6.12382 were on extended
We had 43919063 decisions of which only 6.14759 were on extended
We had 43931282 decisions of which only 6.17168 were on extended
We had 43944059 decisions of which only 6.19703 were on extended
We had 43956244 decisions of which only 6.22077 were on extended
We had 43968390 decisions of which only 6.24472 were on extended
We had 43979899 decisions of which only 6.2677 were on extended
We had 43992077 decisions of which only 6.29141 were on extended
We had 44004541 decisions of which only 6.31658 were on extended
We had 44017418 decisions of which only 6.34188 were on extended
We had 44029596 decisions of which only 6.36597 were on extended
We had 44041771 decisions of which only 6.3898 were on extended
We had 44054135 decisions of which only 6.41404 were on extended
We had 44066523 decisions of which only 6.43788 were on extended
We had 44078584 decisions of which only 6.46203 were on extended
We had 44091069 decisions of which only 6.48679 were on extended
c Switched to LRB.
We had 44103887 decisions of which only 6.51183 were on extended
We had 44115726 decisions of which only 6.53636 were on extended
We had 44127159 decisions of which only 6.56035 were on extended
We had 44139215 decisions of which only 6.58481 were on extended
We had 44151292 decisions of which only 6.60956 were on extended
We had 44163001 decisions of which only 6.63376 were on extended
We had 44175720 decisions of which only 6.65981 were on extended
We had 44187407 decisions of which only 6.68413 were on extended
We had 44199159 decisions of which only 6.70858 were on extended
We had 44210915 decisions of which only 6.73307 were on extended
We had 44222796 decisions of which only 6.75787 were on extended
We had 44234799 decisions of which only 6.78302 were on extended
We had 44246480 decisions of which only 6.80736 were on extended
We had 44258211 decisions of which only 6.83188 were on extended
We had 44269642 decisions of which only 6.85592 were on extended
We had 44281236 decisions of which only 6.88016 were on extended
We had 44293065 decisions of which only 6.90469 were on extended
We had 44305071 decisions of which only 6.92974 were on extended
We had 44316699 decisions of which only 6.95405 were on extended
We had 44328464 decisions of which only 6.97859 were on extended
c Switched to VSIDS.
We had 44340039 decisions of which only 7.00272 were on extended
We had 44351996 decisions of which only 7.02708 were on extended
We had 44364168 decisions of which only 7.05207 were on extended
We had 44375922 decisions of which only 7.07554 were on extended
We had 44387605 decisions of which only 7.09929 were on extended
We had 44399716 decisions of which only 7.12399 were on extended
We had 44411671 decisions of which only 7.14824 were on extended
We had 44423015 decisions of which only 7.1711 were on extended
We had 44434541 decisions of which only 7.19478 were on extended
We had 44446422 decisions of which only 7.21882 were on extended
We had 44458127 decisions of which only 7.24318 were on extended
We had 44470334 decisions of which only 7.26859 were on extended
We had 44482810 decisions of which only 7.29366 were on extended
We had 44494877 decisions of which only 7.31784 were on extended
We had 44506447 decisions of which only 7.34105 were on extended
We had 44518709 decisions of which only 7.36565 were on extended
We had 44531259 decisions of which only 7.39076 were on extended
We had 44543200 decisions of which only 7.41468 were on extended
We had 44554659 decisions of which only 7.43775 were on extended
We had 44566607 decisions of which only 7.46177 were on extended
We had 44578581 decisions of which only 7.48658 were on extended
We had 44590470 decisions of which only 7.51121 were on extended
We had 44601956 decisions of which only 7.53453 were on extended
We had 44613408 decisions of which only 7.55749 were on extended
We had 44625093 decisions of which only 7.58123 were on extended
We had 44636879 decisions of which only 7.60509 were on extended
We had 44649016 decisions of which only 7.62929 were on extended
We had 44660778 decisions of which only 7.6528 were on extended
We had 44672220 decisions of which only 7.676 were on extended
We had 44684260 decisions of which only 7.70025 were on extended
c ===============================================================================
restarts                  : 5501
conflicts                 : 4018092        (3969 /sec)
decisions                 : 44693980       (0.00 % random) (44148 /sec)
propagations              : 1469868802     (1451915 /sec)
conflict literals         : 92901786       (35.73 % deleted)

conflicts w/ DIP found    : 2512585        (62.53 % of conflicts)
conflicts w/ dangerous DIP: 180            (0.00 % of conflicts)
conflicts w/ DIP-learning : 109990         (2.74 % of conflicts)
decisions on ext vars     : 3450104        (7.72 % of decisions)
total ext vars            : 9609        
tried delete ext vars     : 43          
deleted ext vars          : 43          
max ext vars              : 9566        

Memory used               : 295.00 MB
CPU time                  : 1012.37 s
DIP computation time      : 28.6797 s (2.83 % of total time)
ER_sel time               : 3.87957 s
ER_add time               : 0.036396 s
ER_delC time              : 0 s
ER_delV time              : 0.000958 s
ER_sub time               : 5.48435 s
ER_stat time              : 0 s

UNSATISFIABLE
